knapPI_6_1000_10000_318
n 1000
c 2700444
z 2700444
time 3.6
1,8517,8517,1
2,3472,3472,1
3,6982,6982,1
4,3493,3493,1
5,1738,1738,1
6,9788,9788,1
7,3184,3184,1
8,8746,8746,1
9,814,814,1
10,4061,4061,1
11,3429,3429,1
12,4038,4038,1
13,1141,1141,1
14,5192,5192,1
15,2525,2525,1
16,6555,6555,1
17,2620,2620,1
18,4764,4764,1
19,315,315,1
20,8746,8746,1
21,757,757,1
22,5248,5248,1
23,4986,4986,1
24,4480,4480,1
25,3709,3709,1
26,5413,5413,1
27,9362,9362,1
28,6259,6259,1
29,9949,9949,1
30,6161,6161,1
31,4446,4446,1
32,6954,6954,1
33,7564,7564,1
34,9990,9990,1
35,2587,2587,1
36,1140,1140,1
37,9969,9969,1
38,5787,5787,1
39,1114,1114,1
40,1120,1120,1
41,4478,4478,1
42,1974,1974,1
43,4002,4002,1
44,5006,5006,1
45,1267,1267,1
46,6035,6035,1
47,3441,3441,1
48,5517,5517,1
49,4645,4645,1
50,7445,7445,1
51,480,480,1
52,8968,8968,1
53,6796,6796,1
54,1122,1122,1
55,710,710,1
56,1821,1821,1
57,7089,7089,1
58,3716,3716,1
59,1191,1191,1
60,6507,6507,1
61,7704,7704,1
62,9506,9506,1
63,1813,1813,1
64,3758,3758,1
65,3521,3521,1
66,9365,9365,1
67,2524,2524,1
68,7715,7715,1
69,1446,1446,1
70,3486,3486,1
71,6628,6628,1
72,7878,7878,1
73,2351,2351,1
74,4629,4629,1
75,8363,8363,1
76,7649,7649,1
77,9514,9514,1
78,5448,5448,1
79,7597,7597,1
80,904,904,1
81,5171,5171,1
82,2009,2009,1
83,2361,2361,1
84,3360,3360,1
85,8954,8954,1
86,3405,3405,1
87,8440,8440,1
88,3616,3616,1
89,6706,6706,1
90,7248,7248,1
91,5676,5676,1
92,7943,7943,1
93,7018,7018,1
94,7618,7618,1
95,2186,2186,1
96,5910,5910,1
97,3117,3117,1
98,1183,1183,1
99,250,250,1
100,3966,3966,1
101,4095,4095,1
102,623,623,1
103,6525,6525,1
104,395,395,1
105,9374,9374,1
106,9199,9199,1
107,307,307,1
108,6584,6584,1
109,4814,4814,1
110,2592,2592,1
111,3081,3081,1
112,2483,2483,1
113,2606,2606,1
114,2454,2454,1
115,3751,3751,1
116,2702,2702,1
117,1341,1341,1
118,8355,8355,1
119,4688,4688,1
120,2432,2432,1
121,3937,3937,1
122,2901,2901,1
123,2203,2203,1
124,2553,2553,1
125,8177,8177,1
126,8405,8405,1
127,5486,5486,1
128,3923,3923,1
129,7493,7493,1
130,101,101,1
131,1885,1885,1
132,4849,4849,1
133,1552,1552,1
134,7542,7542,1
135,8588,8588,1
136,3034,3034,1
137,3315,3315,1
138,6376,6376,1
139,8613,8613,1
140,6755,6755,1
141,2248,2248,1
142,3174,3174,1
143,1361,1361,1
144,1116,1116,1
145,6557,6557,1
146,848,848,1
147,8288,8288,1
148,8245,8245,1
149,3582,3582,1
150,9168,9168,1
151,7417,7417,1
152,2225,2225,1
153,9530,9530,1
154,2036,2036,1
155,2257,2257,1
156,606,606,1
157,5291,5291,1
158,7325,7325,1
159,2040,2040,1
160,5957,5957,1
161,6169,6169,1
162,4788,4788,1
163,6932,6932,1
164,184,184,1
165,7958,7958,1
166,2827,2827,1
167,7037,7037,1
168,9921,9921,1
169,5294,5294,1
170,3965,3965,1
171,322,322,1
172,3375,3375,1
173,5820,5820,1
174,7468,7468,1
175,7963,7963,1
176,4075,4075,1
177,9057,9057,1
178,4655,4655,1
179,5768,5768,1
180,6578,6578,1
181,8708,8708,1
182,4621,4621,1
183,8848,8848,1
184,6873,6873,1
185,5376,5376,1
186,7409,7409,1
187,1032,1032,1
188,3868,3868,1
189,1657,1657,1
190,6472,6472,1
191,2635,2635,1
192,1332,1332,1
193,7759,7759,1
194,1804,1804,1
195,2595,2595,1
196,2786,2786,1
197,6293,6293,1
198,1007,1007,1
199,78,78,1
200,3526,3526,1
201,255,255,1
202,8406,8406,1
203,6049,6049,1
204,7397,7397,1
205,3891,3891,1
206,2624,2624,1
207,1226,1226,1
208,5433,5433,1
209,8377,8377,1
210,3088,3088,1
211,4071,4071,1
212,7249,7249,1
213,3490,3490,1
214,6430,6430,1
215,4893,4893,1
216,2262,2262,1
217,2608,2608,1
218,6080,6080,1
219,225,225,1
220,78,78,1
221,8558,8558,1
222,1131,1131,1
223,4241,4241,1
224,6830,6830,1
225,4947,4947,1
226,156,156,1
227,9954,9954,1
228,9132,9132,1
229,3349,3349,1
230,5378,5378,1
231,5565,5565,1
232,8827,8827,1
233,9076,9076,1
234,1785,1785,1
235,8420,8420,1
236,248,248,1
237,8477,8477,1
238,3829,3829,1
239,9640,9640,1
240,9950,9950,1
241,2448,2448,1
242,3130,3130,1
243,5481,5481,1
244,2122,2122,1
245,2034,2034,1
246,8089,8089,1
247,1867,1867,1
248,7443,7443,1
249,4173,4173,1
250,6562,6562,1
251,2538,2538,1
252,1990,1990,1
253,7800,7800,1
254,8418,8418,1
255,7598,7598,1
256,8837,8837,1
257,8545,8545,1
258,4406,4406,1
259,7604,7604,1
260,2199,2199,1
261,2729,2729,1
262,2868,2868,1
263,4627,4627,1
264,8380,8380,1
265,6371,6371,1
266,433,433,1
267,343,343,1
268,2538,2538,1
269,7820,7820,1
270,2265,2265,1
271,7983,7983,1
272,5048,5048,1
273,2651,2651,1
274,9258,9258,1
275,4997,4997,1
276,6523,6523,1
277,5653,5653,1
278,6208,6208,1
279,2754,2754,1
280,9619,9619,1
281,7611,7611,1
282,5435,5435,1
283,8147,8147,1
284,8360,8360,1
285,8400,8400,1
286,5243,5243,1
287,1528,1528,1
288,5059,5059,1
289,6114,6114,1
290,1891,1891,1
291,5282,5282,1
292,7091,7091,1
293,5812,5812,1
294,8398,8398,1
295,1294,1294,1
296,3554,3554,1
297,2066,2066,1
298,7520,7520,1
299,347,347,1
300,7263,7263,1
301,2949,2949,1
302,6606,6606,1
303,4572,4572,1
304,7480,7480,1
305,4819,4819,1
306,2813,2813,1
307,8011,8011,1
308,2744,2744,1
309,961,961,1
310,3062,3062,1
311,4708,4708,1
312,5727,5727,1
313,3922,3922,1
314,7547,7547,1
315,3581,3581,1
316,2348,2348,1
317,2146,2146,1
318,6329,6329,1
319,89,89,1
320,1548,1548,1
321,3390,3390,1
322,6542,6542,1
323,2331,2331,1
324,5358,5358,1
325,2759,2759,1
326,412,412,1
327,9807,9807,1
328,2362,2362,1
329,534,534,1
330,8488,8488,1
331,7111,7111,1
332,2044,2044,1
333,473,473,1
334,5642,5642,1
335,6101,6101,1
336,3337,3337,1
337,9972,9972,1
338,4259,4259,1
339,2518,2518,1
340,3119,3119,1
341,4911,4911,1
342,8081,8081,1
343,2151,2151,1
344,7128,7128,1
345,5098,5098,1
346,8464,8464,1
347,3000,3000,1
348,6822,6822,1
349,3837,3837,1
350,8670,8670,1
351,3324,3324,1
352,4708,4708,1
353,9589,9589,1
354,8350,8350,1
355,3831,3831,1
356,9037,9037,1
357,4520,4520,1
358,6556,6556,1
359,8251,8251,1
360,6573,6573,1
361,3758,3758,1
362,1998,1998,1
363,7209,7209,1
364,8442,8442,1
365,2403,2403,1
366,4825,4825,1
367,360,360,1
368,9655,9655,1
369,7314,7314,1
370,9908,9908,1
371,5032,5032,1
372,6343,6343,1
373,9841,9841,1
374,1137,1137,1
375,840,840,1
376,2754,2754,1
377,9193,9193,1
378,189,189,1
379,9127,9127,1
380,3398,3398,1
381,5980,5980,1
382,4167,4167,1
383,392,392,1
384,8354,8354,1
385,3706,3706,1
386,1481,1481,1
387,8978,8978,1
388,7026,7026,1
389,3657,3657,1
390,5695,5695,1
391,5122,5122,1
392,4230,4230,1
393,8720,8720,1
394,8192,8192,1
395,5186,5186,1
396,5914,5914,1
397,6379,6379,1
398,2439,2439,1
399,2081,2081,1
400,2512,2512,1
401,6177,6177,1
402,7597,7597,1
403,2766,2766,1
404,5348,5348,1
405,7597,7597,1
406,7768,7768,1
407,8326,8326,1
408,2295,2295,1
409,3234,3234,1
410,4472,4472,1
411,6113,6113,1
412,7570,7570,1
413,7538,7538,1
414,8,8,1
415,6622,6622,1
416,480,480,1
417,873,873,1
418,9960,9960,1
419,8891,8891,1
420,3627,3627,1
421,4701,4701,1
422,685,685,1
423,9395,9395,1
424,1450,1450,1
425,6400,6400,1
426,8309,8309,1
427,8401,8401,1
428,4994,4994,1
429,6338,6338,1
430,5891,5891,1
431,2553,2553,1
432,1659,1659,1
433,1518,1518,1
434,6489,6489,1
435,1662,1662,1
436,699,699,1
437,6933,6933,1
438,3718,3718,1
439,3131,3131,1
440,9531,9531,1
441,8316,8316,1
442,5863,5863,1
443,5141,5141,1
444,444,444,1
445,7472,7472,1
446,5727,5727,1
447,100,100,1
448,4905,4905,1
449,5329,5329,1
450,6196,6196,1
451,369,369,1
452,2613,2613,1
453,2592,2592,1
454,7016,7016,1
455,2772,2772,1
456,6411,6411,1
457,9163,9163,1
458,7026,7026,1
459,4629,4629,1
460,6724,6724,1
461,9731,9731,1
462,6591,6591,1
463,7159,7159,1
464,6990,6990,1
465,8144,8144,1
466,9507,9507,1
467,229,229,1
468,3042,3042,1
469,6871,6871,1
470,7378,7378,1
471,381,381,1
472,8617,8617,1
473,7488,7488,1
474,6930,6930,1
475,9625,9625,1
476,8722,8722,1
477,2515,2515,1
478,6457,6457,1
479,7446,7446,1
480,8634,8634,1
481,8969,8969,1
482,9979,9979,1
483,4677,4677,1
484,8953,8953,1
485,5679,5679,1
486,1333,1333,1
487,9474,9474,1
488,5191,5191,1
489,1036,1036,1
490,9654,9654,1
491,4456,4456,1
492,2858,2858,1
493,4609,4609,1
494,5900,5900,1
495,8520,8520,1
496,8681,8681,1
497,3363,3363,1
498,7950,7950,1
499,2389,2389,1
500,9516,9516,1
501,6712,6712,1
502,8320,8320,1
503,1856,1856,1
504,6104,6104,1
505,9844,9844,1
506,3916,3916,1
507,5664,5664,1
508,485,485,1
509,9885,9885,1
510,2897,2897,1
511,7132,7132,1
512,7412,7412,1
513,4664,4664,1
514,1905,1905,1
515,9632,9632,1
516,8446,8446,1
517,5156,5156,1
518,747,747,1
519,5177,5177,1
520,7878,7878,1
521,3379,3379,1
522,6602,6602,1
523,8261,8261,1
524,5977,5977,1
525,274,274,1
526,6571,6571,1
527,3734,3734,1
528,9127,9127,1
529,7340,7340,1
530,4773,4773,1
531,9486,9486,1
532,6761,6761,1
533,8983,8983,1
534,7170,7170,1
535,6063,6063,1
536,6537,6537,1
537,862,862,1
538,1431,1431,1
539,2396,2396,1
540,5545,5545,1
541,4147,4147,1
542,7802,7802,1
543,6661,6661,1
544,4534,4534,1
545,237,237,1
546,8685,8685,1
547,406,406,1
548,2358,2358,1
549,4753,4753,1
550,4224,4224,1
551,8185,8185,1
552,2243,2243,1
553,7057,7057,1
554,2207,2207,1
555,9503,9503,1
556,4330,4330,1
557,5830,5830,1
558,134,134,1
559,8962,8962,1
560,3010,3010,1
561,470,470,1
562,4110,4110,1
563,2708,2708,1
564,4996,4996,1
565,1614,1614,1
566,7619,7619,1
567,4283,4283,1
568,9574,9574,1
569,8656,8656,1
570,5237,5237,1
571,930,930,1
572,6377,6377,1
573,8906,8906,1
574,6507,6507,1
575,1378,1378,1
576,7121,7121,1
577,3252,3252,1
578,229,229,1
579,7891,7891,1
580,16,16,1
581,4005,4005,1
582,2811,2811,1
583,3616,3616,1
584,8668,8668,1
585,1912,1912,1
586,2363,2363,1
587,8823,8823,1
588,9507,9507,1
589,4989,4989,1
590,5891,5891,1
591,3169,3169,1
592,391,391,1
593,1735,1735,1
594,7067,7067,1
595,6661,6661,1
596,5806,5806,1
597,5885,5885,1
598,6532,6532,1
599,9174,9174,1
600,7256,7256,1
601,355,355,1
602,5031,5031,1
603,5878,5878,1
604,8114,8114,1
605,1717,1717,1
606,5743,5743,1
607,3359,3359,1
608,9197,9197,1
609,1453,1453,1
610,945,945,1
611,4337,4337,1
612,9867,9867,1
613,1171,1171,1
614,5669,5669,1
615,2351,2351,1
616,5242,5242,1
617,7866,7866,1
618,3348,3348,1
619,7849,7849,1
620,509,509,1
621,9033,9033,1
622,6719,6719,1
623,3634,3634,1
624,6119,6119,1
625,5471,5471,1
626,3311,3311,1
627,5692,5692,1
628,2698,2698,1
629,1451,1451,1
630,5167,5167,1
631,3241,3241,1
632,2191,2191,1
633,3075,3075,1
634,1875,1875,1
635,4148,4148,1
636,8887,8887,1
637,981,981,1
638,4079,4079,1
639,7409,7409,1
640,3748,3748,1
641,7412,7412,1
642,3089,3089,1
643,4510,4510,1
644,4323,4323,1
645,3411,3411,1
646,589,589,1
647,1001,1001,1
648,3092,3092,1
649,1158,1158,1
650,9263,9263,1
651,1268,1268,1
652,543,543,1
653,503,503,1
654,8083,8083,1
655,992,992,1
656,1711,1711,1
657,1802,1802,1
658,1615,1615,1
659,7262,7262,1
660,1983,1983,1
661,4009,4009,1
662,9241,9241,1
663,5947,5947,1
664,1950,1950,1
665,2121,2121,1
666,3256,3256,1
667,8823,8823,1
668,1949,1949,1
669,8081,8081,1
670,9709,9709,1
671,2570,2570,1
672,3173,3173,1
673,1937,1937,1
674,5537,5537,1
675,9288,9288,1
676,5426,5426,1
677,4067,4067,1
678,3410,3410,1
679,7146,7146,1
680,1180,1180,1
681,7659,7659,1
682,7403,7403,1
683,4907,4907,1
684,2676,2676,1
685,54,54,1
686,1659,1659,1
687,126,126,1
688,4282,4282,1
689,9744,9744,1
690,137,137,1
691,8183,8183,1
692,6452,6452,1
693,6034,6034,1
694,6736,6736,1
695,9467,9467,1
696,5461,5461,1
697,6966,6966,1
698,6882,6882,1
699,7769,7769,1
700,6316,6316,1
701,7842,7842,1
702,4976,4976,1
703,5721,5721,1
704,9848,9848,1
705,3119,3119,1
706,7793,7793,1
707,7180,7180,1
708,5932,5932,1
709,1234,1234,1
710,3005,3005,1
711,9160,9160,1
712,4086,4086,1
713,4792,4792,1
714,4259,4259,1
715,9959,9959,1
716,6851,6851,1
717,6401,6401,1
718,861,861,1
719,7768,7768,1
720,8278,8278,1
721,1905,1905,1
722,6335,6335,1
723,3097,3097,1
724,8262,8262,1
725,8348,8348,1
726,6011,6011,1
727,4535,4535,1
728,2497,2497,1
729,632,632,1
730,3997,3997,1
731,3268,3268,1
732,3337,3337,1
733,6778,6778,1
734,2373,2373,1
735,6296,6296,1
736,3056,3056,1
737,6850,6850,1
738,7335,7335,1
739,1306,1306,1
740,2972,2972,1
741,7008,7008,1
742,5051,5051,1
743,6205,6205,1
744,2030,2030,1
745,4898,4898,1
746,6266,6266,1
747,1092,1092,1
748,9081,9081,1
749,5483,5483,1
750,4579,4579,1
751,4076,4076,1
752,4845,4845,1
753,706,706,1
754,4515,4515,1
755,3066,3066,1
756,1172,1172,1
757,9071,9071,1
758,8982,8982,1
759,908,908,1
760,7269,7269,1
761,6509,6509,1
762,7759,7759,1
763,9353,9353,1
764,7996,7996,1
765,2883,2883,1
766,7582,7582,1
767,6515,6515,1
768,5803,5803,1
769,4830,4830,1
770,3410,3410,1
771,1464,1464,1
772,9251,9251,1
773,453,453,1
774,8067,8067,1
775,5150,5150,1
776,7808,7808,1
777,2308,2308,1
778,3228,3228,1
779,4395,4395,1
780,4681,4681,1
781,1335,1335,1
782,364,364,1
783,9197,9197,1
784,1363,1363,1
785,9215,9215,1
786,14,14,1
787,3679,3679,1
788,1012,1012,1
789,2693,2693,1
790,2188,2188,1
791,8721,8721,1
792,6968,6968,1
793,7665,7665,1
794,6714,6714,1
795,7023,7023,1
796,4340,4340,1
797,8426,8426,1
798,5028,5028,1
799,6936,6936,1
800,291,291,1
801,5427,5427,1
802,7757,7757,1
803,735,735,1
804,5326,5326,1
805,4349,4349,1
806,7392,7392,1
807,8616,8616,1
808,3321,3321,1
809,552,552,1
810,399,399,1
811,4477,4477,1
812,3811,3811,1
813,9868,9868,1
814,6710,6710,1
815,672,672,1
816,1793,1793,1
817,1541,1541,1
818,4348,4348,1
819,5800,5800,1
820,1433,1433,1
821,2252,2252,1
822,93,93,1
823,8748,8748,1
824,8267,8267,1
825,5953,5953,1
826,1978,1978,1
827,179,179,1
828,7143,7143,1
829,8380,8380,1
830,6263,6263,1
831,2145,2145,1
832,4100,4100,1
833,6223,6223,1
834,1218,1218,1
835,9468,9468,1
836,7794,7794,1
837,8904,8904,1
838,2607,2607,1
839,9681,9681,1
840,3706,3706,1
841,6963,6963,1
842,1712,1712,1
843,4076,4076,1
844,1693,1693,1
845,4600,4600,1
846,3934,3934,1
847,4698,4698,1
848,6890,6890,1
849,288,288,1
850,245,245,1
851,6234,6234,1
852,3863,3863,1
853,8000,8000,1
854,1300,1300,1
855,9420,9420,1
856,4937,4937,1
857,371,371,1
858,1907,1907,1
859,2465,2465,1
860,1381,1381,1
861,3212,3212,1
862,6541,6541,1
863,2817,2817,1
864,3079,3079,1
865,7136,7136,1
866,9343,9343,1
867,537,537,1
868,7891,7891,1
869,5251,5251,1
870,288,288,1
871,477,477,1
872,6181,6181,1
873,385,385,1
874,4040,4040,1
875,2635,2635,1
876,1408,1408,1
877,2311,2311,1
878,8013,8013,1
879,9076,9076,1
880,7284,7284,1
881,820,820,1
882,6648,6648,1
883,9708,9708,1
884,9034,9034,1
885,3884,3884,1
886,3509,3509,1
887,241,241,1
888,3277,3277,1
889,109,109,1
890,8177,8177,1
891,955,955,1
892,7806,7806,1
893,3824,3824,1
894,8649,8649,1
895,3804,3804,1
896,162,162,1
897,4853,4853,1
898,3941,3941,1
899,1476,1476,1
900,453,453,1
901,9851,9851,1
902,3449,3449,1
903,5423,5423,1
904,9529,9529,1
905,797,797,1
906,5467,5467,1
907,4989,4989,1
908,5842,5842,1
909,2713,2713,1
910,2601,2601,1
911,8495,8495,1
912,4747,4747,1
913,9202,9202,1
914,7530,7530,1
915,5399,5399,1
916,4937,4937,1
917,8845,8845,1
918,3073,3073,1
919,9062,9062,1
920,5131,5131,1
921,7662,7662,1
922,9912,9912,1
923,9621,9621,1
924,7154,7154,1
925,3888,3888,1
926,6340,6340,1
927,2501,2501,1
928,3854,3854,1
929,5366,5366,1
930,2726,2726,1
931,8214,8214,1
932,7236,7236,1
933,6191,6191,1
934,5243,5243,1
935,4949,4949,1
936,9762,9762,1
937,996,996,1
938,9771,9771,1
939,1355,1355,1
940,2850,2850,1
941,9113,9113,1
942,5173,5173,1
943,6817,6817,1
944,2726,2726,1
945,532,532,1
946,3270,3270,1
947,9058,9058,1
948,1932,1932,1
949,7374,7374,1
950,2673,2673,1
951,275,275,1
952,8968,8968,1
953,8422,8422,1
954,9491,9491,1
955,147,147,1
956,2771,2771,1
957,4950,4950,1
958,3986,3986,1
959,2349,2349,1
960,3238,3238,1
961,9977,9977,1
962,5043,5043,1
963,5480,5480,1
964,1461,1461,1
965,8600,8600,1
966,5421,5421,1
967,4658,4658,1
968,2434,2434,1
969,2854,2854,1
970,144,144,1
971,3029,3029,1
972,5620,5620,1
973,3031,3031,1
974,9923,9923,1
975,7692,7692,1
976,494,494,1
977,173,173,1
978,6275,6275,1
979,1605,1605,1
980,1659,1659,1
981,4959,4959,1
982,844,844,1
983,9235,9235,1
984,812,812,1
985,1840,1840,1
986,8002,8002,1
987,7470,7470,1
988,402,402,1
989,9025,9025,1
990,8027,8027,1
991,5587,5587,1
992,8588,8588,1
993,8488,8488,1
994,2089,2089,1
995,1773,1773,1
996,2402,2402,1
997,6285,6285,1
998,1907,1907,1
999,8048,8048,1
1000,5562,5562,1
